
Gurobi 10.0.1 (linux64) logging started Sun Nov 26 16:06:07 2023

Set parameter LogFile to value "ArtificialInstance/ExperimentV2/S4T5K2/AdRo/gurobiSpRo33.txt"
Gurobi Optimizer version 10.0.1 build v10.0.1rc0 (linux64)

CPU model: AMD EPYC 7H12 64-Core Processor, instruction set [SSE2|AVX|AVX2]
Thread count: 128 physical cores, 128 logical processors, using up to 32 threads

Academic license 656792 - for non-commercial use only - registered to b.___@student.vu.nl
Optimize a model with 14124 rows, 13216 columns and 51441 nonzeros
Model fingerprint: 0x65d39e92
Variable types: 1 continuous, 13215 integer (13215 binary)
Coefficient statistics:
  Matrix range     [1e+00, 4e+01]
  Objective range  [1e+00, 2e+01]
  Bounds range     [1e+00, 1e+00]
  RHS range        [1e+00, 1e+00]
Presolve removed 5455 rows and 5068 columns
Presolve time: 0.18s
Presolved: 8669 rows, 8148 columns, 31981 nonzeros
Variable types: 1 continuous, 8147 integer (8147 binary)

Root relaxation: objective 8.891499e+01, 2904 iterations, 0.11 seconds (0.07 work units)

    Nodes    |    Current Node    |     Objective Bounds      |     Work
 Expl Unexpl |  Obj  Depth IntInf | Incumbent    BestBd   Gap | It/Node Time

     0     0   88.91499    0   87          -   88.91499      -     -    0s
H    0     0                      88.9149946   88.91499  0.00%     -    0s

Explored 1 nodes (5304 simplex iterations) in 0.49 seconds (0.35 work units)
Thread count was 32 (of 128 available processors)

Solution count 1: 88.915 

Optimal solution found (tolerance 1.00e-04)
Best objective 8.891499460886e+01, best bound 8.891499460886e+01, gap 0.0000%
